;test regex (?:(?:https?|ftp):\/\/)?(?:\S+(?::\S*)?@)?(?:((25[0-5]|2[0-4][0-9]|1[0-9]{2}|[1-9][0-9]|[0-9])\.){3}(25[0-5]|2[0-4][0-9]|1[0-9]{2}|[1-9][0-9]|[0-9])|(?:(?:[a-z\u00a1-\uffff0-9]+-?)*[a-z\u00a1-\uffff0-9]+)(?:\.(?:[a-z\u00a1-\uffff0-9]+-?)*[a-z\u00a1-\uffff0-9]+)*(?:\.(?:[a-z\u00a1-\uffff]{2,})))(?::\d{2,5})?(?:\/[^\s]*)?
(declare-const X String)
(assert (str.in_re X (re.++ (re.opt (re.++ (re.union (re.++ (str.to_re "h") (re.++ (str.to_re "t") (re.++ (str.to_re "t") (re.++ (str.to_re "p") (re.opt (str.to_re "s")))))) (re.++ (str.to_re "f") (re.++ (str.to_re "t") (str.to_re "p")))) (re.++ (str.to_re ":") (re.++ (str.to_re "/") (str.to_re "/"))))) (re.++ (re.opt (re.++ (re.+ (re.inter (re.diff re.allchar (str.to_re "\u{20}")) (re.inter (re.diff re.allchar (str.to_re "\u{0a}")) (re.inter (re.diff re.allchar (str.to_re "\u{0b}")) (re.inter (re.diff re.allchar (str.to_re "\u{0d}")) (re.inter (re.diff re.allchar (str.to_re "\u{09}")) (re.diff re.allchar (str.to_re "\u{0c}")))))))) (re.++ (re.opt (re.++ (str.to_re ":") (re.* (re.inter (re.diff re.allchar (str.to_re "\u{20}")) (re.inter (re.diff re.allchar (str.to_re "\u{0a}")) (re.inter (re.diff re.allchar (str.to_re "\u{0b}")) (re.inter (re.diff re.allchar (str.to_re "\u{0d}")) (re.inter (re.diff re.allchar (str.to_re "\u{09}")) (re.diff re.allchar (str.to_re "\u{0c}")))))))))) (str.to_re "@")))) (re.++ (re.union (re.++ ((_ re.loop 3 3) (re.++ (re.union (re.union (re.union (re.union (re.++ (str.to_re "25") (re.range "0" "5")) (re.++ (str.to_re "2") (re.++ (re.range "0" "4") (re.range "0" "9")))) (re.++ (str.to_re "1") ((_ re.loop 2 2) (re.range "0" "9")))) (re.++ (re.range "1" "9") (re.range "0" "9"))) (re.range "0" "9")) (str.to_re "."))) (re.union (re.union (re.union (re.union (re.++ (str.to_re "25") (re.range "0" "5")) (re.++ (str.to_re "2") (re.++ (re.range "0" "4") (re.range "0" "9")))) (re.++ (str.to_re "1") ((_ re.loop 2 2) (re.range "0" "9")))) (re.++ (re.range "1" "9") (re.range "0" "9"))) (re.range "0" "9"))) (re.++ (re.++ (re.* (re.++ (re.+ (re.union (re.range "a" "z") (re.union (re.range "\u{00a1}" "\u{ffff0}") (re.union (str.to_re "-") (str.to_re "9"))))) (re.opt (str.to_re "-")))) (re.+ (re.union (re.range "a" "z") (re.union (re.range "\u{00a1}" "\u{ffff0}") (re.union (str.to_re "-") (str.to_re "9")))))) (re.++ (re.* (re.++ (str.to_re ".") (re.++ (re.* (re.++ (re.+ (re.union (re.range "a" "z") (re.union (re.range "\u{00a1}" "\u{ffff0}") (re.union (str.to_re "-") (str.to_re "9"))))) (re.opt (str.to_re "-")))) (re.+ (re.union (re.range "a" "z") (re.union (re.range "\u{00a1}" "\u{ffff0}") (re.union (str.to_re "-") (str.to_re "9")))))))) (re.++ (str.to_re ".") (re.++ (re.* (re.union (re.range "a" "z") (re.range "\u{00a1}" "\u{ffff}"))) ((_ re.loop 2 2) (re.union (re.range "a" "z") (re.range "\u{00a1}" "\u{ffff}")))))))) (re.++ (re.opt (re.++ (str.to_re ":") ((_ re.loop 2 5) (re.range "0" "9")))) (re.opt (re.++ (str.to_re "/") (re.* (re.inter (re.diff re.allchar (str.to_re "\u{20}")) (re.inter (re.diff re.allchar (str.to_re "\u{0b}")) (re.inter (re.diff re.allchar (str.to_re "\u{0a}")) (re.inter (re.diff re.allchar (str.to_re "\u{0d}")) (re.inter (re.diff re.allchar (str.to_re "\u{09}")) (re.diff re.allchar (str.to_re "\u{0c}"))))))))))))))))
; sanitize danger characters:  < > ' " \ / &
(assert (not (str.in_re X (re.* (re.union (str.to_re "\u{3c}") (str.to_re "\u{3e}") (str.to_re "\u{27}") (str.to_re "\u{22}") (str.to_re "\u{5c}") (str.to_re "\u{2f}") (str.to_re "\u{26}"))))))
(assert (< 20 (str.len X)))
(check-sat)
(get-model)